# Objective value = 56
WA1n 0
WA1p 0
WA2n 1
WA2p 0
WB1n 0
WB1p 0
WB2n 1
WB2p 0
WC1n 0
WC1p 0
WC2n 0
WC2p 1
WD1n 1
WD1p 0
WD2n 1
WD2p 0
WE1n 2
WE1p 0
WF1n 2
WF1p 0
WG1n 0
WG1p 2
WH1n 0
WH1p 2
WI1n 9
WI1p 0
WI2n 1
WI2p 0
WJ1n 9
WJ1p 0
WJ2n 1
WJ2p 0
WK1n 9
WK1p 0
WK2n 1
WK2p 0
WT1n 4
WT1p 0
WT2n 1
WT2p 0
5 7
a 0
b 0
c 0
d 0
e 0
f 1
g 0
h 0
i 0
j 0
k 1
l 1
m 0
n 0
o 0
p 0
q 0
r 0
s 0
t 0
